&inputpp
  prefix='Si',
  outdir='./tmp',
/
