&dos
    outdir='./tmp'
    prefix='Si_bulk'
    fildos='Ge5H12.dos.dat',
    degauss=0.01
    Emin=-5.0, Emax=30.0, DeltaE=0.01
/