&INPUTPP
       prefix = 'graphene',
       outdir = './',
      filplot = 'graphene.pot',
     plot_num = 11
/

