&bands
    prefix = "GaAs",
    outdir='./tmp'
    filband='GaAs-bands.dat'
    lsym=.false.
 /
