&PROJWFC
  prefix       = "CO",
  outdir       = "./tmp",
  lsym=.false.
  filproj='CO.proj'
/
