&dos
    outdir='./tmp'
    prefix='Grafene'
    fildos='Grafene.dos.dat',
    degauss=0.01
    Emin=-15.0, Emax=30.0, DeltaE=0.01
/


