 &control
    calculation       = 'nscf'
    restart_mode      = 'from_scratch'
    prefix            = 'Si_bulk'
    pseudo_dir        = '../../pseudo',
    outdir            = './tmp'
    forc_conv_thr     = 1.0d-3
    etot_conv_thr     = 1.0d-5
    nstep             = 100
    verbosity         = 'high'
    wf_collect=.true.
 /
 &system
    ibrav             = 2
    celldm(1)         = 10.2
    nat               = 2
    ntyp              = 1
    ecutwfc           = 35
    nbnd              = 15
 /
 &electrons
    !diago_thr_init=1.0e-2,
    electron_maxstep = 100,
    !diagonalization='cg'
    mixing_mode = 'plain'
    mixing_beta = 0.7
    conv_thr =  1.0d-8,
    !startingpot='file',
    !startingwfc='atomic',
 /
!&ions
!    ion_dynamics='bfgs',
!    upscale=10
!/
ATOMIC_SPECIES
 Si  28.0855   Si.pbe-rrkj.UPF
ATOMIC_POSITIONS
Si       0.000000000   0.000000000   0.000000000
Si       0.250000000   0.250000000   0.250000000
K_POINTS AUTOMATIC
15 15 15 1 1 1
