function print_nscf_in()
{
cat > $PREFIX.kpt_$1.nscf.in << EOF
&CONTROL
    calculation       = 'nscf'
    restart_mode      = 'from_scratch'
    prefix            = '$PREFIX'
    tstress           = .true.
    tprnfor           = .true.
    pseudo_dir        = '$PSEUDO_DIR'
    outdir            = '$TMP_DIR'
    verbosity         = 'high'
    disk_io = 'minimal'
    wf_collect        = .true.
/
&SYSTEM
                       ibrav = 4,
                   celldm(1) = $CELL_DIM,
                   celldm(3) = 6,
                         nat = 2,
                        ntyp = 1,
                     ecutwfc = $CUTOFF ,
                        nbnd = $nbnd,
                   !input_dft = 'bz-vbc' ,
                 occupations = 'smearing' ,
                     degauss = 0.03 ,
                    smearing = 'gaussian' ,
/
&ELECTRONS
                 mixing_beta = 0.7 ,
/
ATOMIC_SPECIES
    C   12.01100  C.pz-vbc.UPF 
ATOMIC_POSITIONS crystal 
    C      0.000000000    0.000000000    0.000000000    
    C      0.333333333    0.666666667    0.000000000    
K_POINTS automatic
 $1 $1 1	1 1 1
EOF
}

function print_nscf_in2()
{
cat > $PREFIX.bnd_$1.nscf.in << EOF
&CONTROL
    calculation       = 'nscf'
    restart_mode      = 'from_scratch'
    prefix            = '$PREFIX'
    tstress           = .true.
    tprnfor           = .true.
    pseudo_dir        = '$PSEUDO_DIR'
    outdir            = '$TMP_DIR'
    verbosity         = 'high'
    disk_io = 'minimal'
    wf_collect        = .true.
/
&SYSTEM
                       ibrav = 4,
                   celldm(1) = $CELL_DIM,
                   celldm(3) = 6,
                         nat = 2,
                        ntyp = 1,
                     ecutwfc = $CUTOFF ,
                        nbnd = $nbnd,
                   !input_dft = 'bz-vbc' ,
                 occupations = 'smearing' ,
                     degauss = 0.03 ,
                    smearing = 'gaussian' ,
/
&ELECTRONS
                 mixing_beta = 0.7 ,
/
ATOMIC_SPECIES
    C   12.01100  C.pz-vbc.UPF 
ATOMIC_POSITIONS crystal 
    C      0.000000000    0.000000000    0.000000000    
    C      0.333333333    0.666666667    0.000000000    
K_POINTS automatic
 21 21 1	1 1 1
EOF
}

function print_dos_in()
{
cat > $PREFIX.dos.in <<EOF
 &dos
   outdir='$TMP_DIR'
   prefix='$PREFIX'
   fildos='$PREFIX.dos.dat',
        degauss=0.01
   Emin=-5.0, Emax=30.0, DeltaE=0.1
 /

EOF
}

function print_pw2gw_in()
{
cat > $PREFIX.pw2gw.in << EOF
&inputpp
  prefix='$PREFIX',
  outdir='$TMP_DIR',
/
EOF
}

function print_scf_in
{
cat > $PREFIX.scf.in << EOF
&CONTROL
    calculation       = 'scf'
    restart_mode      = 'from_scratch'
    prefix            = '$PREFIX'
    tstress           = .true.
    tprnfor           = .true.
    pseudo_dir        = '$PSEUDO_DIR'
    outdir            = '$TMP_DIR'
    verbosity         = 'high'
    disk_io = 'minimal'
    wf_collect        = .true.
/
&SYSTEM
                       ibrav = 4,
                   celldm(1) = $CELL_DIM,
                   celldm(3) = 6,
                         nat = 2,
                        ntyp = 1,
                     ecutwfc = $CUTOFF ,
                        nbnd = $nbnd,
                   !input_dft = 'bz-vbc' ,
                 occupations = 'smearing' ,
                     degauss = 0.03 ,
                    smearing = 'gaussian' ,
/
&ELECTRONS
                 mixing_beta = 0.7 ,
/
ATOMIC_SPECIES
    C   12.01100  C.pz-vbc.UPF 
ATOMIC_POSITIONS crystal 
    C      0.000000000    0.000000000    0.000000000    
    C      0.333333333    0.666666667    0.000000000    
K_POINTS automatic
 12 12 1	1 1 1
EOF
}
