&INPUTPP
       prefix = 'BN',
       outdir = 'tmp',
      filplot = 'BN.pot',
     plot_num = 11
/

