&CONTROL
  calculation  = 'scf',
  prefix       = 'Si',
  pseudo_dir   = '../../Pseudo',
  outdir       = './tmp',
  restart_mode = 'from_scratch'
  verbosity    = 'high'
  tprnfor = .true.
  wf_collect=.true.
/
&SYSTEM
  ibrav     = 2,
  celldm(1) = 10.2075,
  nat       = 2,
  ntyp      = 1,
  ecutwfc   = 40 
  nbnd      = 20
/
&ELECTRONS
  conv_thr    = 1.D-8,
  mixing_beta = 0.7D0	,
/
ATOMIC_SPECIES
 Si  28.086  Si.pz-vbc.UPF
ATOMIC_POSITIONS {alat}
 Si 0.00 0.00 0.00
 Si 0.25 0.25 0.25
K_POINTS {automatic} 
4 4 4   1 1 1

