&control
    calculation       = 'nscf'
    restart_mode      = 'from_scratch'
    prefix            = 'BN'
    tstress           = .true.
    tprnfor           = .true.
    pseudo_dir        = '../../Pseudo'
    outdir            = './tmp'
    verbosity         = 'high'
    disk_io = 'minimal'
    wf_collect        = .true.
/
&system
    ibrav             = 4
    celldm(1)         = 4.68
    celldm(3)         =  6
    nat               =  2
    ntyp              = 2
    ecutwfc           =  40
    nbnd              = 20
/
&electrons
    conv_thr          = 1.0d-8
    mixing_mode       = 'plain'
    mixing_beta       = 0.7d0
/
&ions
    ion_dynamics='bfgs',
    upscale=10
/

ATOMIC_SPECIES
B   10.811  B.pz-vbc.UPF
N   14.067  N.pz-vbc.UPF

ATOMIC_POSITIONS {alat}
B     0.000000000   0.577350300   0.00
N     0.500000000   0.288675100   0.00

K_POINTS {automatic}
15 15 1   1 1 1
