&inputpp
  prefix='BN',
  outdir='./tmp',
/
