&bands
    prefix = "GNR",
    outdir='spin-AFM'
    filband='GNR-spin-AFM-bands.dat'
 /
