&bands
    prefix = "GNR",
    outdir='metal'
    filband='GNR-metal-bands.dat'
 /
