&inputpp
    prefix='Si_bulk',
    outdir='./tmp'
    what='gw',
    qplda=.false.,
    vxcdiag=.false.,
    vkb=.false.,
    Emax=10.0
    DeltaE=0.02
/
