&bands
    prefix = "Si",
    outdir='./tmp'
    filband='Sibands.dat'
    lsym=.true.
 /
