&bands
    prefix = "Si",
    outdir='$TMP_DIR'
    filband='Sibands.dat'
    lsym=.true.
 /
