&INPUTPP
       prefix = 'CO',
       outdir = './tmp',
      filplot = 'CO.pot',
     plot_num = 11
/

&PLOT
        iflag = 3,
output_format = 3,
/
