&CONTROL
  calculation  = "relax",
  prefix       = "CO",
  pseudo_dir   = "../../Pseudo",
  outdir       = "./tmp",
  etot_conv_thr = 1.0D-4
  forc_conv_thr = 1.0D-3
/
&SYSTEM
  ibrav     = 0,
  nat       = 2,
  ntyp      = 2,
  nbnd      = 6,
  ecutwfc   = 35 
/
&ELECTRONS
  conv_thr    = 1.D-7,
  mixing_beta = 0.7D0,
/
&IONS
  ion_dynamics = "bfgs"
/
CELL_PARAMETERS {bohr}
10  0.0  0.0
 0.0  10  0.0
 0.0  0.0  10
ATOMIC_SPECIES
O  1.00  O.pw-mt_fhi.UPF
C  1.00  C.pw-mt_fhi.UPF
ATOMIC_POSITIONS {bohr}
C  2.256  0.0  0.0  1 0 0
O  0.000  0.0  0.0  0 0 0
K_POINTS {Gamma}
