&CONTROL
    calculation       = 'scf'
    restart_mode      = 'from_scratch'
    prefix            = 'graphene'
    tstress           = .true.
    tprnfor           = .true.
    pseudo_dir        = '../../Pseudo'
    outdir            = './'
    verbosity         = 'high'
    disk_io = 'minimal'
    wf_collect        = .true.
/
&SYSTEM
                       ibrav = 4,
                   celldm(1) = 4.635,
                   celldm(3) = 6,
                         nat = 2,
                        ntyp = 1,
                     ecutwfc = 20 ,
                        nbnd = 8,
                 occupations = 'smearing' ,
                     degauss = 0.01 ,
                    smearing = 'm-v' ,
/
&ELECTRONS
                 mixing_beta = 0.7 ,
/
ATOMIC_SPECIES
    C   12.01100  C.pz-vbc.UPF 
ATOMIC_POSITIONS crystal 
    C      0.000000000    0.000000000    0.500000000    
    C      0.333333333    0.666666667    0.500000000    
K_POINTS automatic
  3 3 1	0 0 0
