&inputpp
  prefix='Grafene',
  outdir='./tmp',
/
