&CONTROL
  calculation  = "scf",
  prefix       = "C",
  pseudo_dir   = "../../Pseudo",
  outdir       = "./tmp",
  verbosity = 'high'
/
&SYSTEM
  ibrav      = 0,
  nat        = 1,
  ntyp       = 1,
  nbnd       = 6,
  ecutwfc    = 50
  nspin       =2
  occupations ='smearing'
  degauss     =0.001
  starting_magnetization=0.1
/
&ELECTRONS
  conv_thr    = 1.D-7,
  mixing_beta = 0.7D0,
/
CELL_PARAMETERS {bohr}
12.0  0.0  0.0
 0.0 12.0  0.0
 0.0  0.0 12.0
ATOMIC_SPECIES
C  1.00  C.pw-mt_fhi.UPF
ATOMIC_POSITIONS {bohr}
C  0.0 0.0 0.0 
K_POINTS {Gamma}
