&inputpp
  prefix="Si"
  outdir="./tmp"
  filplot="charge.dat"
  plot_num=0
/
&plot
  iflag=3
  output_format=5
  fileout="charge.xsf"
/
