&INPUTPP
       prefix = 'BN',
       outdir = './',
      filplot = 'BN.pot',
     plot_num = 11
/

